networks/zoo_28_42/zoo_28_42.txt
Number of groups: 10
Flow 2: {12 15} {15 14} 
Flow 3: {13 2} {2 10} {10 11} {11 26} 
Flow 7: {6 7} {7 22} 
Flow 10: {2 13} {13 5} {5 12} {12 27} 
Flow 12: {9 8} {8 11} {11 10} {10 2} {2 17} 
Flow 19: {11 8} {8 9} {9 6} {6 21} 
Flow 26: {1 7} {7 6} {6 9} {9 24} 
Flow 28: {5 13} {13 28} 
Flow 29: {14 1} {1 16} 
Flow 31: {14 15} {15 12} {12 5} {5 20} 
Time taken running everything: 0 seconds
