networks/zoo_28_42/standard/zoo_28_42.sol
<?xml version = "1.0" encoding="UTF-8" standalone="yes"?>
<CPLEXSolution version="1.2">
 <header
   problemName="networks/zoo_28_42/zoo_28_42.lp"
   solutionName="incumbent"
   solutionIndex="-1"
   objectiveValue="10"
   solutionTypeValue="3"
   solutionTypeString="primal"
   solutionStatusValue="101"
   solutionStatusString="integer optimal solution"
   solutionMethodString="mip"
   primalFeasible="1"
   dualFeasible="1"
   MIPNodes="0"
   MIPIterations="333"
   writeLevel="3"/>
 <quality
   epInt="1.0000000000000001e-05"
   epRHS="9.9999999999999995e-07"
   maxIntInfeas="0"
   maxPrimalInfeas="0"
   maxX="4"
   maxSlack="10"/>
 <variables>
  <variable name="Y(2,15)" index="34" value="1"/>
  <variable name="Y(3,11)" index="52" value="1"/>
  <variable name="Y(7,7)" index="136" value="1"/>
  <variable name="Y(10,12)" index="207" value="1"/>
  <variable name="Y(12,2)" index="243" value="1"/>
  <variable name="Y(19,6)" index="399" value="1"/>
  <variable name="Y(26,9)" index="556" value="1"/>
  <variable name="Y(28,13)" index="604" value="1"/>
  <variable name="Y(29,1)" index="616" value="1"/>
  <variable name="Y(31,5)" index="662" value="1"/>
  <variable name="X(1,7,26)" index="949" value="1"/>
  <variable name="X(1,16,29)" index="994" value="1"/>
  <variable name="X(2,10,3)" index="1010" value="1"/>
  <variable name="X(2,13,10)" index="1059" value="1"/>
  <variable name="X(2,17,12)" index="1103" value="1"/>
  <variable name="X(5,12,10)" index="1143" value="1"/>
  <variable name="X(5,13,28)" index="1203" value="1"/>
  <variable name="X(5,20,31)" index="1248" value="1"/>
  <variable name="X(6,7,7)" index="1266" value="1"/>
  <variable name="X(6,9,26)" index="1327" value="1"/>
  <variable name="X(6,21,19)" index="1362" value="1"/>
  <variable name="X(7,6,26)" index="1411" value="1"/>
  <variable name="X(7,22,7)" index="1434" value="1"/>
  <variable name="X(8,9,19)" index="1488" value="1"/>
  <variable name="X(8,11,12)" index="1523" value="1"/>
  <variable name="X(9,6,19)" index="1572" value="1"/>
  <variable name="X(9,8,12)" index="1607" value="1"/>
  <variable name="X(9,24,26)" index="1663" value="1"/>
  <variable name="X(10,2,12)" index="1691" value="1"/>
  <variable name="X(10,11,3)" index="1724" value="1"/>
  <variable name="X(11,8,19)" index="1782" value="1"/>
  <variable name="X(11,10,12)" index="1817" value="1"/>
  <variable name="X(11,26,3)" index="1850" value="1"/>
  <variable name="X(12,5,31)" index="1920" value="1"/>
  <variable name="X(12,15,2)" index="1933" value="1"/>
  <variable name="X(12,27,10)" index="1983" value="1"/>
  <variable name="X(13,2,3)" index="2018" value="1"/>
  <variable name="X(13,5,10)" index="2067" value="1"/>
  <variable name="X(13,28,28)" index="2127" value="1"/>
  <variable name="X(14,1,29)" index="2170" value="1"/>
  <variable name="X(14,15,31)" index="2214" value="1"/>
  <variable name="X(15,12,31)" index="2256" value="1"/>
  <variable name="X(15,14,2)" index="2269" value="1"/>
  <variable name="C(2,15)" index="2315" value="1"/>
  <variable name="C(3,2)" index="2322" value="1"/>
  <variable name="C(3,10)" index="2323" value="2"/>
  <variable name="C(3,11)" index="2324" value="3"/>
  <variable name="C(7,7)" index="2341" value="1"/>
  <variable name="C(10,13)" index="2350" value="1"/>
  <variable name="C(10,5)" index="2351" value="2"/>
  <variable name="C(10,12)" index="2352" value="3"/>
  <variable name="C(12,8)" index="2359" value="1"/>
  <variable name="C(12,11)" index="2360" value="2"/>
  <variable name="C(12,10)" index="2361" value="3"/>
  <variable name="C(12,2)" index="2362" value="4"/>
  <variable name="C(19,8)" index="2389" value="1"/>
  <variable name="C(19,9)" index="2390" value="2"/>
  <variable name="C(19,6)" index="2391" value="3"/>
  <variable name="C(26,7)" index="2417" value="1"/>
  <variable name="C(26,6)" index="2418" value="2"/>
  <variable name="C(26,9)" index="2419" value="3"/>
  <variable name="C(28,13)" index="2428" value="1"/>
  <variable name="C(29,1)" index="2430" value="1"/>
  <variable name="C(31,15)" index="2438" value="1"/>
  <variable name="C(31,12)" index="2439" value="2"/>
  <variable name="C(31,5)" index="2440" value="3"/>
 </variables>
</CPLEXSolution>
